15 87
1 8
12 14
4 7
0 12
1 4
6 12
5 14
7 8
5 13
12 13
5 6
7 11
6 14
3 5
3 8
1 3
10 12
1 7
1 13
6 13
0 11
0 7
0 1
6 8
2 4
9 14
1 10
8 14
7 10
5 9
3 10
1 6
10 11
1 12
9 13
2 5
3 6
1 2
0 4
0 13
4 14
7 12
4 10
6 10
3 14
3 12
6 11
0 3
2 6
5 12
7 13
11 14
11 13
6 9
3 7
0 2
0 10
0 9
3 4
10 14
5 10
4 13
0 8
5 11
11 12
13 14
3 11
8 13
4 11
7 9
9 10
4 8
9 11
4 9
8 12
7 14
1 14
2 9
2 12
4 5
8 11
1 5
0 14
3 13
2 3
4 6
2 11
